 &bands
    prefix = 'GS'
    outdir = './'
    filband = 'bands.dat'
 /
