 &control
   calculation     = 'scf'
   prefix          = 'GS'
   restart_mode    = 'from_scratch'
   wf_collect      = .false.
   pseudo_dir      = '../PP/'
   outdir          = './'
   verbosity       = 'high'
   tprnfor         = .true.
   tstress         = .true.
 /
 &system
   ecutwfc     =60
   ecutrho     =240
   nbnd        =12
   nat         =2
   ntyp        =1
   ibrav       =0
   noncolin    = .true.
   lspinorb    = .true.
   london      = .true.
 /
 &electrons
   diagonalization = 'david'
   mixing_beta     =0.7
   conv_thr        =1e-12
 /
ATOMIC_SPECIES
Si 28.0855 Si.pbe-n-kjpaw_psl.1.0.0.UPF

CELL_PARAMETERS (angstrom)
   0  2.7155  2.7155
   2.7155  0  2.7155
   2.7155   2.7155   0

ATOMIC_POSITIONS (crystal)
Si   0.1250000  0.1250000 0.1250000
Si   -0.1250000  -0.1250000 -0.1250000
K_POINTS   automatic
    11 11 11 0 0 0 
